30 30
27 10
12 47
50 22
42 11
41 34
45 13.5
37 22.5
8 23.5
10 47.5
18 30.5
11 48.5
53 60.5
48 69
10 32
16 59
49 71
22 47
8 42
33 42
16 75.5
19 77.5
25 81.5
19 60.5
37 49.5
45 47.5
22 71.5
13 89
6 59
3 73
49 99
27 50
38 75
49 63
14 107.5
43 72.5
16 90.5
4 87.5
33 91.5
48 67.5
53 84.5
31 114
14 76
13 117
45 115
15 91
29 83
28 76
32 105.5
26 90.5
